cif2pos.py                              
    1.000000000000000     
     8.5678999999999998    0.0000000000000000    0.0000000000000000
     0.0000000000000000    8.5678999999999998    0.0000000000000000
     0.0000000000000000    0.0000000000000000   18.1137000000000015
   Al
    37
Direct
 -0.0008905182741591  0.0140551471710772  0.5070436659753462
 -0.0057378145358344  0.0109130433182515  0.7108235138190675
  0.1657484670976076  0.1480736491646800  0.3865799431331745
  0.1567272789486616  0.1624424381755477  0.6207839214304133
  0.3092564825148569  0.0044808938674277  0.5010109347940471
  0.3226017954503481 -0.0101231207355853  0.7118627710174705
  0.5035214273370558  0.1515967818881311  0.4121708308529920
  0.4876117062054005  0.1593492421910178  0.6041989333329626
  0.6673679085226535 -0.0014102094119469  0.5068792707685760
  0.6664056705548308  0.0167736776157097  0.6953253033462309
  0.8364998129644948  0.1715087596139857  0.4086544609603380
  0.8446475807934548  0.1823438543443605  0.6074840955454189
  0.0151567545484733  0.3274502212118603  0.4980009341401742
  0.0031652811579812  0.3294796149821491  0.7040410369472769
  0.1747079575380208  0.4985784691878289  0.4022804514353792
  0.1899939498738457  0.4765030651986740  0.6084628284249991
  0.3352672050772517  0.3077189023432787  0.5031592882673388
  0.3495022814961103  0.3197737790760943  0.7108655934626659
  0.5079941303574049  0.5101448278640039  0.4246700573956730
  0.4902567989051467  0.4956486323871850  0.5985577832423885
  0.6623749620925318  0.3060995960408305  0.5138031988223675
  0.6577487358452911  0.3521487376533662  0.6892924568873863
  0.8233376402482597  0.4955146725942276  0.4213756291474371
  0.8395303380937917  0.4910874719387675  0.5989490858728463
  0.0197721243502552  0.6489584794221029  0.5065687804468541
 -0.0055867248971736  0.6558682930230185  0.6867366882092049
  0.1752066403167135  0.8383092783897983  0.4107398828486267
  0.1510009305898237  0.8503456521892401  0.6036308075604261
  0.3224130926747095  0.6741125004441516  0.5130856327450597
  0.3228459143576757  0.6675832049218968  0.6847061601588484
  0.5103433092497395  0.8279023131288560  0.4178135706561166
  0.4769043489525935  0.8643064100173095  0.6050087725759530
  0.6648863504911786  0.6788968837273825  0.5172715596846218
  0.6492621503682566  0.6757532045707276  0.6800922920454684
  0.8405931921844255  0.8202332555660266  0.4141605763532895
  0.8371930579568608  0.8539572646930290  0.6035610842226965
  0.3691597805914655  0.3422711122255410  0.3288382034708703
 
 -0.23812171E-02 -0.47198076E-02 -0.72052679E-03
 -0.12928933E-02 -0.53093756E-02  0.31905354E-02
 -0.54543118E-03  0.43559946E-02  0.15294330E-02
 -0.31025628E-02  0.10986708E-02  0.42665442E-02
 -0.58747901E-02  0.46961535E-02  0.18915466E-02
  0.73903373E-03 -0.46855200E-02  0.23353894E-02
  0.26588803E-02 -0.19464280E-03  0.25835588E-02
  0.14883309E-02  0.19903307E-02 -0.17331128E-03
  0.11542136E-02  0.30969254E-02 -0.11921999E-02
  0.29054378E-02  0.84364337E-03 -0.47442017E-02
 -0.14460910E-02  0.80736911E-03 -0.19470078E-02
  0.27418704E-02 -0.81082796E-03 -0.18867191E-02
 -0.38469016E-02 -0.67331190E-02 -0.58491402E-06
  0.54447332E-02 -0.25363351E-02  0.30891312E-02
 -0.14691559E-02 -0.35233342E-02  0.12970110E-02
 -0.95214032E-03 -0.84376627E-03 -0.22415689E-02
  0.22550468E-02  0.14568114E-02  0.32046022E-02
  0.95835229E-03  0.53716049E-02  0.31549457E-02
  0.21315171E-02  0.22891387E-02 -0.22969350E-02
 -0.34583033E-02 -0.74779084E-03 -0.45370658E-03
 -0.29528083E-02 -0.91995047E-03 -0.15445817E-02
  0.46986508E-03 -0.23590637E-02  0.70258070E-03
 -0.51928175E-02  0.23662341E-02  0.85405345E-03
 -0.20045316E-02 -0.65010293E-04  0.68017300E-03
  0.30808451E-03  0.31247961E-03  0.16097182E-02
  0.41572276E-02  0.57094776E-02 -0.35613414E-02
 -0.25424409E-03  0.84548340E-04  0.16677110E-02
  0.49489552E-02  0.30906816E-03 -0.21238391E-02
 -0.11301127E-02 -0.20159896E-02 -0.19606204E-02
 -0.43292780E-02 -0.48965468E-03 -0.53499997E-03
  0.42569448E-03 -0.20374168E-02 -0.12206339E-03
  0.59387863E-03 -0.12221349E-02 -0.63147549E-03
  0.30206622E-02  0.37361213E-02 -0.10856860E-02
 -0.21773806E-02  0.49588618E-03  0.12707134E-03
  0.21256248E-02 -0.13930345E-02 -0.23733814E-03
  0.50614821E-03 -0.46346961E-03  0.12354737E-02
  0.33771025E-02  0.20497862E-02 -0.59607711E-02
 
            1
    1.000000000000000     
  0.79946394E+00 -0.19065133E-02  0.78737295E-03  0.80002351E+00
  0.99883156E+00  0.13504276E-01  0.50700389E+00
  0.99411129E+00  0.10293361E-01  0.71099965E+00
  0.16568481E+00  0.14858206E+00  0.38666438E+00
  0.15636516E+00  0.16257067E+00  0.62101946E+00
  0.30857081E+00  0.50290041E-02  0.50111536E+00
  0.32268805E+00  0.98933001E+00  0.71199170E+00
  0.50383176E+00  0.15157406E+00  0.41231346E+00
  0.48778542E+00  0.15958154E+00  0.60418937E+00
  0.66750262E+00  0.99895125E+00  0.50681345E+00
  0.66674478E+00  0.16872143E-01  0.69506339E+00
  0.83633103E+00  0.17160299E+00  0.40854697E+00
  0.84496760E+00  0.18224922E+00  0.60737994E+00
  0.14707765E-01  0.32666437E+00  0.49800090E+00
  0.38007616E-02  0.32918359E+00  0.70421158E+00
  0.17453649E+00  0.49816724E+00  0.40235206E+00
  0.18988282E+00  0.47640459E+00  0.60833908E+00
  0.33553040E+00  0.30788893E+00  0.50333620E+00
  0.34961414E+00  0.32040072E+00  0.71103977E+00
  0.50824291E+00  0.51041200E+00  0.42454325E+00
  0.48985316E+00  0.49556135E+00  0.59853274E+00
  0.66203033E+00  0.30599222E+00  0.51371793E+00
  0.65780358E+00  0.35187340E+00  0.68933124E+00
  0.82273156E+00  0.49579085E+00  0.42142278E+00
  0.83929638E+00  0.49107988E+00  0.59898664E+00
  0.19808082E-01  0.64899495E+00  0.50665765E+00
  0.99489848E+00  0.65653467E+00  0.68654008E+00
  0.17517697E+00  0.83831915E+00  0.41083195E+00
  0.15157855E+00  0.85038172E+00  0.60351356E+00
  0.32228119E+00  0.67387720E+00  0.51297739E+00
  0.32234062E+00  0.66752606E+00  0.68467662E+00
  0.51039299E+00  0.82766452E+00  0.41780683E+00
  0.47697366E+00  0.86416377E+00  0.60497391E+00
  0.66523891E+00  0.67933294E+00  0.51721162E+00
  0.64900802E+00  0.67581108E+00  0.68009931E+00
  0.84084128E+00  0.82007067E+00  0.41414747E+00
  0.83725213E+00  0.85390317E+00  0.60362929E+00
  0.36955394E+00  0.34251035E+00  0.32850913E+00
  0.00000000E+00  0.00000000E+00  0.00000000E+00
  0.00000000E+00  0.00000000E+00  0.00000000E+00
  0.00000000E+00  0.00000000E+00  0.00000000E+00
  0.00000000E+00  0.00000000E+00  0.00000000E+00
  0.00000000E+00  0.00000000E+00  0.00000000E+00
  0.00000000E+00  0.00000000E+00  0.00000000E+00
  0.00000000E+00  0.00000000E+00  0.00000000E+00
  0.00000000E+00  0.00000000E+00  0.00000000E+00
  0.00000000E+00  0.00000000E+00  0.00000000E+00
  0.00000000E+00  0.00000000E+00  0.00000000E+00
  0.00000000E+00  0.00000000E+00  0.00000000E+00
  0.00000000E+00  0.00000000E+00  0.00000000E+00
  0.00000000E+00  0.00000000E+00  0.00000000E+00
  0.00000000E+00  0.00000000E+00  0.00000000E+00
  0.00000000E+00  0.00000000E+00  0.00000000E+00
  0.00000000E+00  0.00000000E+00  0.00000000E+00
  0.00000000E+00  0.00000000E+00  0.00000000E+00
  0.00000000E+00  0.00000000E+00  0.00000000E+00
  0.00000000E+00  0.00000000E+00  0.00000000E+00
  0.00000000E+00  0.00000000E+00  0.00000000E+00
  0.00000000E+00  0.00000000E+00  0.00000000E+00
  0.00000000E+00  0.00000000E+00  0.00000000E+00
  0.00000000E+00  0.00000000E+00  0.00000000E+00
  0.00000000E+00  0.00000000E+00  0.00000000E+00
  0.00000000E+00  0.00000000E+00  0.00000000E+00
  0.00000000E+00  0.00000000E+00  0.00000000E+00
  0.00000000E+00  0.00000000E+00  0.00000000E+00
  0.00000000E+00  0.00000000E+00  0.00000000E+00
  0.00000000E+00  0.00000000E+00  0.00000000E+00
  0.00000000E+00  0.00000000E+00  0.00000000E+00
  0.00000000E+00  0.00000000E+00  0.00000000E+00
  0.00000000E+00  0.00000000E+00  0.00000000E+00
  0.00000000E+00  0.00000000E+00  0.00000000E+00
  0.00000000E+00  0.00000000E+00  0.00000000E+00
  0.00000000E+00  0.00000000E+00  0.00000000E+00
  0.00000000E+00  0.00000000E+00  0.00000000E+00
  0.00000000E+00  0.00000000E+00  0.00000000E+00
  0.00000000E+00  0.00000000E+00  0.00000000E+00
  0.00000000E+00  0.00000000E+00  0.00000000E+00
  0.00000000E+00  0.00000000E+00  0.00000000E+00
  0.00000000E+00  0.00000000E+00  0.00000000E+00
  0.00000000E+00  0.00000000E+00  0.00000000E+00
  0.00000000E+00  0.00000000E+00  0.00000000E+00
  0.00000000E+00  0.00000000E+00  0.00000000E+00
  0.00000000E+00  0.00000000E+00  0.00000000E+00
  0.00000000E+00  0.00000000E+00  0.00000000E+00
  0.00000000E+00  0.00000000E+00  0.00000000E+00
  0.00000000E+00  0.00000000E+00  0.00000000E+00
  0.00000000E+00  0.00000000E+00  0.00000000E+00
  0.00000000E+00  0.00000000E+00  0.00000000E+00
  0.00000000E+00  0.00000000E+00  0.00000000E+00
  0.00000000E+00  0.00000000E+00  0.00000000E+00
  0.00000000E+00  0.00000000E+00  0.00000000E+00
  0.00000000E+00  0.00000000E+00  0.00000000E+00
  0.00000000E+00  0.00000000E+00  0.00000000E+00
  0.00000000E+00  0.00000000E+00  0.00000000E+00
  0.00000000E+00  0.00000000E+00  0.00000000E+00
  0.00000000E+00  0.00000000E+00  0.00000000E+00
  0.00000000E+00  0.00000000E+00  0.00000000E+00
  0.00000000E+00  0.00000000E+00  0.00000000E+00
  0.00000000E+00  0.00000000E+00  0.00000000E+00
  0.00000000E+00  0.00000000E+00  0.00000000E+00
  0.00000000E+00  0.00000000E+00  0.00000000E+00
  0.00000000E+00  0.00000000E+00  0.00000000E+00
  0.00000000E+00  0.00000000E+00  0.00000000E+00
  0.00000000E+00  0.00000000E+00  0.00000000E+00
  0.00000000E+00  0.00000000E+00  0.00000000E+00
  0.00000000E+00  0.00000000E+00  0.00000000E+00
  0.00000000E+00  0.00000000E+00  0.00000000E+00
  0.00000000E+00  0.00000000E+00  0.00000000E+00
  0.00000000E+00  0.00000000E+00  0.00000000E+00
  0.00000000E+00  0.00000000E+00  0.00000000E+00
  0.00000000E+00  0.00000000E+00  0.00000000E+00
  0.00000000E+00  0.00000000E+00  0.00000000E+00
