cif2pos.py
1.0
     8.56790000     0.00000000     0.00000000
     0.00000000     8.56790000     0.00000000
     0.00000000     0.00000000    18.11370000
  Al
  37
Direct
     0.00000000     0.00000000     0.50099000
     0.00000000     0.00000000     0.72397000
     0.16667000     0.16667000     0.38950000
     0.16667000     0.16667000     0.61248000
     0.33333000     0.00000000     0.50099000
     0.33333000     0.00000000     0.72397000
     0.50000000     0.16667000     0.38950000
     0.50000000     0.16667000     0.61248000
     0.66667000     0.00000000     0.50099000
     0.66667000     0.00000000     0.72397000
     0.83333000     0.16667000     0.38950000
     0.83333000     0.16667000     0.61248000
     0.00000000     0.33333000     0.50099000
     0.00000000     0.33333000     0.72397000
     0.16667000     0.50000000     0.38950000
     0.16667000     0.50000000     0.61248000
     0.33333000     0.33333000     0.50099000
     0.33333000     0.33333000     0.72397000
     0.50000000     0.50000000     0.38950000
     0.50000000     0.50000000     0.61248000
     0.66667000     0.33333000     0.50099000
     0.66667000     0.33333000     0.72397000
     0.83333000     0.50000000     0.38950000
     0.83333000     0.50000000     0.61248000
     0.00000000     0.66667000     0.50099000
     0.00000000     0.66667000     0.72397000
     0.16667000     0.83333000     0.38950000
     0.16667000     0.83333000     0.61248000
     0.33333000     0.66667000     0.50099000
     0.33333000     0.66667000     0.72397000
     0.50000000     0.83333000     0.38950000
     0.50000000     0.83333000     0.61248000
     0.66667000     0.66667000     0.50099000
     0.66667000     0.66667000     0.72397000
     0.83333000     0.83333000     0.38950000
     0.83333000     0.83333000     0.61248000
     0.33679000     0.31865000     0.27603000
