cif2pos.py                              
    1.000000000000000     
    13.2360699999999998    0.0000000000000000    0.0000000000000000
     0.0000000000000000   13.2360699999999998    0.0000000000000000
     0.0000000000000000    0.0000000000000000   12.7017059999999997
   Zr   Li   La   O 
    16    56    24    96
Direct
  0.0012178538088441  0.2465912934650105  0.1232164583727619
  0.7418952561150399  0.4934542518407551  0.3772225837300489
  0.4999278306395950  0.2556110966452181  0.6269073904359451
  0.7483517584566034  0.0033714835862282  0.8769814588698236
  0.5010992922641511  0.7564829496239682  0.1242154961222375
  0.2612829558942607  0.4970061248541703  0.8729049311288333
 -0.0034087482496369  0.7477450208095464  0.6232927107926801
  0.2458807811046836  0.0091380894410685  0.3764696902460305
  0.2542857320073879 -0.0016325150312655  0.8816557673308405
  0.2523005883694006  0.4981428665799764  0.3827766018261585
  0.7507179026798282 -0.0138834695578762  0.3692573800488677
  0.7470427112174158  0.4988202985399710  0.8710426560637891
  0.5031847720034062  0.7564096723466794  0.6321833359281601
  0.0006562780307111  0.7412843458189233  0.1244477634936880
 -0.0000545167323727  0.2551936804952328  0.6314604907960262
  0.4947268023296582  0.2519409947533551  0.1309856138346787
  0.0927322693501895  0.1708115856108096  0.9367627135487074
  0.8012255734796174  0.5845244917240106  0.1668695759970390
  0.4383269029286817  0.3486305269059276  0.4361544756608998
  0.6742044752337694  0.9283605241218866  0.6750446572528215
  0.5673847633271271  0.8390793158065047  0.3173165076551050
  0.3282940429303678  0.4133725710693956  0.0810213813233038
  0.9204308773357688  0.6671226734472098  0.8176414011963840
  0.1504240309554830  0.0828204546436729  0.5752778429157857
  0.9136291190680829  0.3357348867534381  0.3085411075424431
  0.1566807505590758  0.9172208758780306  0.0680373959087163
  0.5828322375782736  0.1667539134531879  0.8160711995572654
  0.3568680548431173  0.5890213697077794  0.5676618622821514
  0.4155751682298342  0.6739612441214049  0.9160066049366702
  0.6636733445494943  0.0808797391349537  0.1740234150461420
  0.0868065070318832  0.8234647702734814  0.4286379546218368
  0.8378651337263789  0.4244823521187270  0.6766072498554727
  0.5893035611897769  0.6785340412614048  0.4355021604957777
  0.3333834226518321  0.0843404432023660  0.6829362536598703
  0.9190415074426641  0.8530477060383799  0.9428393651142379
  0.1649780391371777  0.4286346229119828  0.1829749559057866
  0.0935210663801615  0.3453050094609043  0.8141293967126175
  0.8560674699893458  0.9178131678319681  0.5795169556813977
  0.4214297262003290  0.1718020115570473  0.3211977352604962
  0.6422965264540332  0.5894772190182958  0.0548301625800603
  0.4257362122184809  0.8489089744426893  0.8224626492131192
  0.6616916608074361  0.4094869091930273  0.5700411172264699
  0.0843938470972117  0.6335899674708839  0.3197062805305958
  0.8372705872446005  0.0749139770770810  0.0641030562392233
  0.9260549672780846  0.1487074735102538  0.4365553997949069
  0.1815327904825984  0.5755274699326345  0.6755585805543314
  0.5745498200513622  0.3343712295237581  0.9330619138346520
  0.3438125399680118  0.9165404834046608  0.1703151578310941
  0.1791999192361742  0.1694855327173614  0.7340326615492813
  0.8139856022836607  0.6765327187282755 -0.0179864725080524
  0.3300866312020984  0.3295485475619775  0.2663090911928870
  0.6808933450833966  0.8367825996294941  0.5228472740685594
  0.8236339088050831  0.3226482807053842  0.5037920886812072
  0.1798862151951415  0.8124513614506284  0.2259666009601616
  0.6776553125330277  0.1867132036981195 -0.0145207007591124
  0.3195516796635343  0.6744621697379946  0.7487441972269375
  0.6695677934665299  0.6768433048235954  0.2534319938334906
  0.3150501970789293  0.1827480437092443  0.4902664859766513
  0.8153707676000161  0.8269172848762767  0.7687322641785994
  0.1884237659753247  0.3176537406121606  0.0013411538147475
  0.3181161166780651  0.8025870537410156 -0.0084772154758227
  0.6844400891860092  0.3221734079225074  0.7551420160903093
  0.1829582370249411  0.6777377581221511  0.5115131925684223
  0.8209046954572283  0.1780519456073614  0.2561711896101183
  0.0048454402697011 -0.0054528029098735 -0.0002186698823891
 -0.0153131314872613  0.4944236893614812  0.2445265369938947
  0.5134557506643169  0.5055501983511694  0.5008709918089137
  0.5026218527440769 -0.0018913556324340  0.7420731032494460
  0.4993488265460391  0.0070725177880098  0.2437738106792250
  0.4930270673970504  0.5003411568392554  0.0035586192024025
  0.0021320416772900  0.4970195901436255  0.7461397939043825
  0.0049622338762785 -0.0113035181260812  0.5021891787610836
  0.1156544745774094  0.2547478900265082  0.3707247495968299
  0.7488723661202403  0.6263946025447843  0.6191549311067678
  0.3739497699591461  0.2495144076366084  0.8717804299083105
  0.7518285237833495  0.8670797469157175  0.1269019324030372
  0.6231613115998952  0.7519563007820169  0.8765588982576376
  0.2482158375505969  0.3715561973835705  0.6279593834165415
  0.8666263147603612  0.7354644757295049  0.3703232196389075
  0.2518746033765334  0.1263825259951309  0.1223306131587245
  0.8721861944045461  0.2560991648399813  0.8841106450672310
  0.2576351435093585  0.8675062590508839  0.6274487300179474
  0.6313972249445708  0.2416694423840593  0.3756704109170064
  0.2574851795335672  0.6265023539716199  0.1261431185107044
  0.3561360870931080  0.7617304521319476  0.3646734899965490
  0.7575541907435054  0.1302904755212725  0.6206468716361618
  0.1336495716185364  0.7469410253379173  0.8735351741819654
  0.7367459911308073  0.3706413878086643  0.1278418947180856
  0.0102591115543150 -0.0059145679886090  0.2464832898501744
 -0.0012000264305321  0.5037133261608610  0.5033155740560442
  0.5099968659191447  0.4944577687871750  0.7497512415393237
  0.4968260562952388  0.0050140255539146 -0.0113107401420811
  0.0023259453635046  0.5001699557282970 -0.0040793254429019
  0.0003457581419647 -0.0016312356950756  0.7519851736869911
  0.4877972574581288  0.0101644196687489  0.5010663424291933
  0.5013468170262172  0.5031651179973533  0.2517066852377199
  0.0329766151216563  0.1931101253951426  0.7874761251725398
  0.7920956119152539  0.5391458227734421  0.0213076106164832
  0.4649883402367924  0.3076908765185303  0.2772488930988408
  0.6975884529193140  0.9736842848371562  0.5283369113809271
  0.5437798531776251  0.8203314845554353  0.4809617006862831
  0.3107207464491175  0.4698942644704484  0.2211387951789368
  0.9685230737813634  0.6863558241324086  0.9734903331590244
  0.1907364751426818  0.0283745517927411  0.7310299301653336
  0.9703802174137300  0.3129105647347010  0.4758693536132891
  0.1921042016643055  0.9630840607133385  0.2227604169099273
  0.5297980770792402  0.1910021250140299  0.9691815661113308
  0.3036655791367195  0.5299946817265390  0.7171361208469891
  0.4660893261006949  0.7018312003732096  0.7823167936922322
  0.6997779000323381  0.0411249122841588  0.0312432910915781
  0.0366405360199171  0.8024399124315210  0.2762105852836498
  0.7973992045619775  0.4605571736932854  0.5307805791614822
  0.5271185178622076  0.6983183248590605  0.2769695345372454
  0.3007522070346655  0.0359685135179985  0.5318911201730513
  0.9715763837134086  0.7974295202315300  0.7788374178889192
  0.2005674238121400  0.4716399303382523  0.0286292657212705
  0.0393699418063888  0.3000732052908119  0.9768712609009160
  0.8061319616303584  0.9642217022434468  0.7200254061802247
  0.4678329993916764  0.1984589027327147  0.4679757140239709
  0.6860398809595810  0.5347778293298210  0.2283252177238967
  0.4757619341152795  0.8159607337133569  0.9698708520962188
  0.6930220770426635  0.4623712756587424  0.7220088111434422
  0.0264975925229534  0.6929286425765129  0.4684930166285948
  0.8034360783661296  0.0274246104734704  0.2180511735537529
  0.9685888912908582  0.1931283398065131  0.2793657010125308
  0.2020109345471358  0.5399929956349424  0.5296956009009622
  0.5432394286540154  0.3088876005853349  0.7831653997497424
  0.3123992665751774  0.9667178605654249  0.0287406787424612
  0.0546518060431236  0.0994426182188904  0.0926833814873243
  0.8997481696388899  0.5489657975811119  0.3584288443258579
  0.4558916617246036  0.4008616268093037  0.5857380849778783
  0.6028563835096371  0.9578931082778920  0.8504266544384210
  0.5458319752378941  0.9006900345044380  0.1656375434445262
  0.4048034678691038  0.4553408776075132  0.9021440900286540
  0.9394482020725277  0.5998221878710606  0.6540695603814478
  0.0988777250747383  0.0504772692628644  0.4097203687486510
  0.9380623648115688  0.3939713260720026  0.1623895591621213
  0.1142247224920257  0.9363368250287503  0.9116242695572128
  0.5425113000386472  0.1105401603127711  0.6627214759469223
  0.3952802184058934  0.5622438329908075  0.4096613488990028
  0.4622681256693152  0.6114039183108526  0.0927083297584984
  0.6132133029053076  0.0668823232261630  0.3381161274696001
  0.0379363527254314  0.8909957215198568  0.6023412050194525
  0.8904119759098446  0.4409313578735417  0.8249482522247334
  0.5590917710666119  0.6094505297910157  0.5871932631035367
  0.4024184791729585  0.0452249449816052  0.8383955450552845
  0.9510057528735992  0.8969833160711769  0.0856323423936043
  0.1047832458082491  0.4640182731053222  0.3448275060750772
  0.0625776695292381  0.3948923909605214  0.6646131560022300
  0.8980125100069164  0.9452078931656380  0.4059026775622548
  0.4379402182454478  0.1050812327692587  0.1652856232739288
  0.5957289623928445  0.5464276074112850  0.9081731234871975
  0.4418203997649988  0.9067060119529891  0.6567575602069113
  0.6023945453405132  0.4354605381476119  0.4208861550655686
  0.0584857434408487  0.5923523162789180  0.1592978600864557
  0.8946988595922039  0.0445884974154606  0.9158126780162857
  0.9528327401032244  0.1123162066508895  0.5989988861334066
  0.1058622414792428  0.5494772155843775  0.8468960895933677
  0.5494517220481244  0.3988389066243068  0.0909729662507571
  0.3977968257216675  0.9478075566030161  0.3420183281789890
  0.1519946234891362  0.2193876708692078  0.5781660695904643
  0.7717741716094109  0.6495949254144487  0.8242621377353498
  0.3544976921114766  0.2767542741420333  0.0741215074807930
  0.7175011868178922  0.8450682450079906  0.3093760177999127
  0.6499544458439397  0.7792095881870386  0.6819334345230786
  0.2765923042696016  0.3503734047025775  0.4298717972122585
  0.8454009103248402  0.7212150176413842  0.1765921299468242
  0.2310904218450141  0.1553245203797729  0.9348407775411024
  0.8589802580647052  0.2786433357839975  0.6822967091564499
  0.2263967601369432  0.8577805792920157  0.4416819867524241
  0.6458073847697170  0.2287548075350856  0.1719764988348955
  0.2843779376357179  0.6545869869584040  0.9217391565006451
  0.3560511504781840  0.7239805138033831  0.5851860208588530
  0.7173630784388177  0.1541348500677530  0.8224021977890501
  0.1522031561191900  0.7756544672727328  0.0742899219107048
  0.7678153907020113  0.3453807397090188  0.3183024314738655
  0.6460565953502759  0.7286931328250549  0.0614724515436546
  0.2747109174141295  0.1488720432795670  0.3249405096274299
  0.8410781724401730  0.7733379013584828  0.5750489765727760
  0.2304848695535305  0.3547340130968341  0.8276031782446158
  0.1481737758254375  0.2792606420698261  0.1834132608966843
  0.7767087195985941  0.8484070268425122  0.9271653416919596
  0.3513999521706850  0.2276283869180965  0.6880059216754664
  0.7189082439086490  0.6428960843540347  0.4177865784039621
  0.3494822822814527  0.7844305839855625  0.1723748860377543
  0.7263214174319155  0.3516505614740306  0.9330383558260193
  0.1502927727023264  0.7228340735211363  0.6674676523357148
  0.7842381410900832  0.1384983909105983  0.4118405321238829
  0.8549629127544712  0.2164619471331878  0.0714051693099121
  0.2294110550105672  0.6597402051214767  0.3162403231699877
  0.6588199536709612  0.2693274550239525  0.5763378323490349
  0.2841876980497342  0.8500760923757553  0.8281235659361297
 
 -0.57329315E-03 -0.28635763E-02 -0.30779362E-03
  0.67977330E-03 -0.18097336E-02 -0.23703888E-02
  0.25420339E-02  0.11231909E-02  0.23443860E-02
  0.87224687E-03  0.31130737E-04  0.21598003E-03
 -0.12544249E-02 -0.15586820E-02  0.13457903E-02
  0.11848318E-02  0.92711220E-03 -0.18627468E-03
 -0.66267771E-03  0.25029946E-02  0.37927119E-03
  0.17757547E-03  0.74341246E-03 -0.13720509E-02
 -0.79774756E-03  0.62764677E-03 -0.20984279E-03
 -0.27691898E-02  0.17609618E-02 -0.12224548E-02
 -0.15673654E-02  0.12917452E-03 -0.10372944E-02
 -0.44705877E-03 -0.13433348E-02 -0.13942452E-02
 -0.86684515E-03  0.14354648E-02  0.58320556E-03
  0.24539551E-02 -0.85209696E-03  0.11569579E-03
 -0.58639320E-03 -0.10928358E-02  0.75174637E-03
 -0.11375090E-02  0.12179469E-03  0.16349779E-02
 -0.26357650E-02  0.32215044E-02  0.14581675E-02
 -0.62675233E-02  0.24059974E-02  0.51027717E-02
  0.33262159E-03 -0.94542569E-02 -0.11299893E-02
 -0.42140324E-02  0.74159462E-02 -0.10754818E-01
  0.70900570E-02  0.12810646E-02 -0.92102732E-02
 -0.51919382E-02 -0.32585732E-02  0.12053013E-01
 -0.30774864E-02  0.80043619E-02 -0.23930579E-02
  0.86337065E-02 -0.29119772E-02  0.32950527E-02
 -0.95581774E-03 -0.42489944E-02  0.65971540E-02
  0.63096073E-02 -0.14748746E-02 -0.31642236E-02
 -0.10678422E-01 -0.22706780E-03 -0.14602560E-03
 -0.15426523E-02  0.50159031E-02 -0.21852629E-02
  0.96366562E-03 -0.10729627E-01 -0.77143537E-03
 -0.81453697E-02 -0.67592093E-02 -0.87605841E-02
  0.58396563E-02 -0.64639289E-02  0.48786636E-03
  0.76024221E-02 -0.10899629E-02  0.96341624E-02
 -0.26303089E-02  0.39389039E-03  0.32505893E-02
  0.38785523E-02 -0.68341597E-03 -0.10496782E-03
 -0.58433144E-02 -0.62947552E-02  0.28846581E-02
 -0.47504001E-02 -0.33269451E-02  0.16141518E-02
 -0.51298681E-02 -0.10432162E-02 -0.62863788E-02
 -0.50349137E-02 -0.71344514E-02  0.25488617E-02
  0.80124926E-02  0.98699450E-02  0.49529859E-02
  0.38085274E-02  0.40484378E-02 -0.10131147E-01
  0.54297338E-02  0.18727549E-02  0.17177836E-02
  0.48126046E-02 -0.27886205E-02 -0.81621639E-02
 -0.73102827E-02  0.33562631E-02 -0.30841319E-02
  0.68891830E-02  0.67033647E-03 -0.85087835E-03
 -0.83018651E-02  0.16984075E-02  0.31007380E-02
  0.27699170E-02  0.39259858E-02 -0.43498574E-02
  0.50493146E-03  0.98063052E-02  0.27005663E-02
 -0.19687057E-02 -0.34081045E-02  0.68841173E-02
 -0.95554817E-02  0.25238468E-02  0.26846135E-02
 -0.20213407E-02 -0.31442813E-02  0.68802844E-02
 -0.97475522E-02  0.24597930E-03  0.48329966E-02
  0.74279612E-02  0.16079440E-02  0.56614664E-02
  0.10181180E-01  0.51078377E-02 -0.87064039E-02
 -0.12685005E-02  0.65078571E-02 -0.75856339E-04
 -0.65024485E-02 -0.63543967E-02 -0.68251251E-02
 -0.13206485E-01 -0.21286903E-02  0.66220472E-02
  0.47383202E-02 -0.51973448E-02 -0.50288903E-02
  0.46159149E-02  0.13857430E-02  0.57788298E-02
  0.30343363E-02 -0.11761566E-03  0.68336530E-02
  0.77564884E-02  0.67514501E-02  0.32966509E-02
  0.10585467E-01  0.41609708E-02 -0.22933176E-02
 -0.68889702E-02  0.26573700E-02 -0.45842338E-02
 -0.17260868E-02  0.20115029E-02 -0.19111820E-02
 -0.82691405E-02 -0.11364865E-01 -0.10203161E-01
 -0.34427611E-02 -0.87660739E-02  0.13120362E-01
  0.74116245E-02 -0.34228675E-02  0.31164263E-02
  0.76608592E-03 -0.45530635E-02  0.85435893E-02
  0.54973114E-02  0.73211567E-03 -0.64291909E-02
  0.94971323E-03 -0.33039899E-02  0.12923495E-01
  0.10047660E-02 -0.12741865E-02  0.98101446E-02
  0.43768829E-02  0.55734410E-02  0.35016858E-02
  0.83283986E-03  0.15484653E-02  0.33239765E-02
 -0.68259921E-03  0.16617061E-02 -0.16954502E-02
  0.10974857E-02  0.66037264E-03  0.16533518E-03
  0.93897509E-03 -0.11447330E-02  0.15317833E-02
 -0.11759282E-02 -0.13110659E-02  0.27681352E-03
  0.10654279E-02  0.21168183E-03 -0.12702431E-02
 -0.95453392E-03 -0.27717409E-03 -0.13705736E-02
  0.74200601E-04 -0.30156375E-02  0.77508641E-03
  0.91247933E-03 -0.26372556E-03  0.59887992E-03
 -0.12730125E-02 -0.30575644E-02  0.12284315E-03
  0.81804059E-03  0.88269399E-03 -0.12778588E-02
  0.12480056E-02  0.57379914E-03  0.42962833E-03
  0.18618909E-02 -0.81499380E-03  0.34011312E-03
 -0.22389859E-03  0.96876300E-03 -0.19495838E-02
 -0.18899714E-02 -0.31279592E-03  0.85933357E-03
  0.16061793E-02  0.58522412E-04 -0.91682739E-03
 -0.45134357E-03  0.25836710E-02  0.49809498E-03
 -0.18152808E-03  0.22276651E-02 -0.60161376E-05
 -0.35220808E-03  0.97872095E-03  0.50808007E-03
 -0.32570598E-03 -0.48589283E-03 -0.11927176E-02
  0.40046313E-02 -0.10216319E-02  0.19299323E-03
 -0.15808628E-02  0.31505688E-02  0.64889604E-03
  0.17584668E-03  0.15974557E-03 -0.66933047E-03
 -0.28743533E-02 -0.22108577E-02  0.27050284E-03
  0.13116712E-02  0.11623296E-02 -0.44860736E-03
 -0.15541721E-02  0.60907137E-02 -0.51712644E-02
  0.88646372E-03 -0.30748531E-03 -0.28248962E-02
 -0.14656097E-02  0.16155965E-02  0.44654622E-02
  0.69123686E-03 -0.14355393E-02  0.72804322E-02
 -0.52694774E-02 -0.90238366E-03 -0.23101579E-02
  0.74986389E-02  0.73079946E-03  0.81886645E-02
 -0.61807922E-02  0.17963156E-02 -0.35660963E-02
 -0.56830550E-03 -0.26156844E-02 -0.37117588E-02
  0.96164654E-03  0.15462267E-03 -0.17909914E-02
 -0.58394759E-02  0.48439196E-02  0.25944298E-02
 -0.43410617E-02 -0.45866161E-02 -0.17252380E-03
  0.24475349E-02 -0.48175626E-02  0.13902756E-02
  0.49971481E-02 -0.12610973E-02 -0.22852243E-02
  0.21205229E-02  0.61401772E-02  0.39087479E-02
 -0.15094089E-02 -0.38515196E-03 -0.48238455E-02
  0.11505515E-02  0.67854398E-03 -0.24850806E-02
  0.68780572E-02  0.11521715E-02  0.42866824E-02
 -0.68167273E-02 -0.27938041E-02 -0.41329050E-03
  0.41957438E-02 -0.77852810E-03 -0.39693841E-02
  0.31238668E-02  0.32525682E-02 -0.57197457E-03
 -0.33329899E-02 -0.63531850E-02 -0.53863105E-02
  0.46366290E-02 -0.57363822E-02  0.51979327E-04
  0.29956930E-04 -0.17039874E-02 -0.23562240E-02
 -0.25442302E-03  0.80147475E-02 -0.38753882E-02
  0.91661174E-03  0.81671736E-02  0.29762433E-02
  0.47019412E-02 -0.28400586E-02  0.15160256E-02
 -0.48387653E-02 -0.55169995E-03  0.10701332E-02
 -0.54001326E-02 -0.43777551E-02 -0.30469723E-02
 -0.22869972E-02 -0.11052052E-02  0.18129637E-02
 -0.33268475E-02  0.15448333E-02  0.16380035E-02
 -0.47394434E-03 -0.24790039E-02  0.10038714E-02
 -0.37584165E-02 -0.41971365E-02  0.45449178E-02
 -0.25296689E-02 -0.42977247E-02 -0.21398749E-02
  0.29690203E-02  0.17698710E-02  0.52380790E-02
 -0.24429170E-03 -0.16288648E-02 -0.46843873E-02
  0.21794190E-02  0.38188127E-02 -0.54412587E-03
  0.19080303E-02 -0.39193309E-03  0.33261425E-02
 -0.42725977E-04  0.26813103E-02 -0.64946422E-02
 -0.41247375E-03  0.34281172E-02 -0.10226282E-02
  0.47516090E-02  0.45740934E-03  0.46152101E-02
 -0.32090861E-02 -0.89351293E-03 -0.47541705E-02
  0.35779026E-03  0.20862471E-02  0.55631024E-02
  0.34857067E-02  0.88906529E-02 -0.11712984E-02
  0.61941245E-02 -0.20764612E-02  0.35892611E-02
 -0.12594891E-02  0.36769930E-02  0.49983900E-02
  0.37305083E-02 -0.28660445E-02 -0.50460571E-02
  0.40259815E-02  0.32563144E-02  0.39178821E-02
 -0.21465975E-02 -0.34587409E-03  0.55232893E-02
 -0.78103401E-03 -0.47597365E-02  0.15302229E-02
  0.26282212E-02 -0.63711555E-02  0.24652675E-02
  0.19996170E-02  0.60237006E-02 -0.17046746E-02
 -0.18521812E-02  0.53164448E-02 -0.14492863E-02
  0.77822322E-02  0.19982350E-02  0.30910440E-02
 -0.13086895E-02  0.26283791E-02 -0.28720282E-02
  0.14023982E-02  0.64615229E-02 -0.33758968E-02
  0.97146350E-03 -0.26497087E-03  0.15082715E-03
 -0.79767794E-02 -0.39187537E-03 -0.16955841E-02
  0.10447283E-02 -0.29096120E-02  0.34748633E-02
  0.52693941E-02 -0.14202067E-02  0.16186162E-02
  0.18580193E-02  0.10209512E-01 -0.14547656E-02
 -0.16514472E-02 -0.79043751E-02 -0.47300802E-02
  0.15415724E-02 -0.16623831E-02  0.17169365E-02
  0.43037816E-03 -0.47654456E-02  0.40211822E-02
 -0.58681798E-02  0.97887946E-03  0.39881406E-02
  0.23100173E-03 -0.76916532E-02 -0.43609110E-02
  0.12288498E-02 -0.47082583E-02 -0.58461057E-02
  0.61441484E-02  0.46202188E-02 -0.11174001E-02
 -0.44021664E-02 -0.27227803E-02 -0.10788703E-02
 -0.26554627E-02 -0.51185792E-02 -0.22943725E-02
  0.37991588E-02 -0.24546612E-02 -0.19137994E-02
 -0.11661086E-02 -0.43678858E-02  0.98926107E-03
  0.39737422E-02 -0.79036613E-03  0.25908394E-02
 -0.66179469E-03 -0.75043795E-02 -0.20546014E-02
  0.25660298E-02 -0.81490818E-03 -0.37473089E-02
 -0.39220667E-02 -0.36758122E-02  0.67752876E-02
 -0.92596195E-02 -0.85866156E-03  0.31613553E-02
  0.57532174E-04  0.18626339E-02 -0.63175409E-02
 -0.18609260E-02 -0.31669254E-02 -0.66556798E-03
 -0.64614436E-02 -0.25181226E-02  0.30942443E-02
  0.52548998E-03 -0.36590523E-02  0.41058250E-02
  0.33423365E-02 -0.20082889E-04 -0.14982425E-02
  0.93591371E-03  0.12142957E-02  0.51459580E-02
 -0.19020641E-02  0.17906115E-02  0.40670857E-02
  0.17850959E-02  0.11373847E-02  0.30705566E-02
  0.11970207E-02  0.42651205E-02 -0.10346899E-01
  0.19452197E-02  0.47478112E-02 -0.12426450E-02
  0.34451797E-02 -0.20136808E-02  0.26995321E-02
 -0.45991706E-02  0.83799998E-03  0.19292336E-02
 -0.17596018E-02 -0.39921959E-02 -0.29377905E-02
 -0.64116480E-02 -0.27079495E-02 -0.28285562E-02
 -0.77781089E-02  0.56174540E-02  0.15947540E-02
  0.34425282E-02  0.44563504E-03  0.70477860E-02
  0.30244725E-03 -0.87412650E-03 -0.47942501E-03
  0.23049805E-02  0.78813358E-02 -0.47139473E-04
 -0.73209488E-02  0.54082017E-03 -0.13790832E-02
 -0.11496712E-03  0.53414918E-02  0.45693144E-02
 
            1
    1.000000000000000     
 -0.38415227E+00 -0.15607182E-02 -0.39710942E-03 -0.38317336E+00
  0.11745409E-02  0.24637495E+00  0.12319223E+00
  0.74194661E+00  0.49331752E+00  0.37703596E+00
  0.50011988E+00  0.25569595E+00  0.62709196E+00
  0.74841766E+00  0.33738355E-02  0.87699846E+00
  0.50100452E+00  0.75636519E+00  0.12432145E+00
  0.26137247E+00  0.49707617E+00  0.87289027E+00
  0.99654119E+00  0.74793412E+00  0.62332257E+00
  0.24589420E+00  0.91942551E-02  0.37636167E+00
  0.25422546E+00  0.99841490E+00  0.88163925E+00
  0.25209137E+00  0.49827591E+00  0.38268036E+00
  0.75059949E+00  0.98612629E+00  0.36917571E+00
  0.74700894E+00  0.49871881E+00  0.87093289E+00
  0.50311928E+00  0.75651812E+00  0.63222925E+00
  0.84167710E-03  0.74121997E+00  0.12445687E+00
  0.99990118E+00  0.25511112E+00  0.63151968E+00
  0.49464086E+00  0.25195020E+00  0.13111433E+00
  0.92533134E-01  0.17105497E+00  0.93687751E+00
  0.80075206E+00  0.58470627E+00  0.16727132E+00
  0.43835203E+00  0.34791625E+00  0.43606551E+00
  0.67388610E+00  0.92892081E+00  0.67419793E+00
  0.56792043E+00  0.83917610E+00  0.31659139E+00
  0.32790179E+00  0.41312638E+00  0.81970310E-01
  0.92019837E+00  0.66772741E+00  0.81745300E+00
  0.15107632E+00  0.82600451E-01  0.57553726E+00
  0.91355691E+00  0.33541387E+00  0.30906050E+00
  0.15715745E+00  0.91710945E+00  0.67788278E-01
  0.58202547E+00  0.16673676E+00  0.81605970E+00
  0.35675151E+00  0.58940033E+00  0.56748982E+00
  0.41564797E+00  0.67315061E+00  0.91594587E+00
  0.66305795E+00  0.80369073E-01  0.17333370E+00
  0.87247700E-01  0.82297641E+00  0.42867636E+00
  0.83843951E+00  0.42440000E+00  0.67736574E+00
  0.58910484E+00  0.67856380E+00  0.43575808E+00
  0.33367645E+00  0.84288810E-01  0.68292799E+00
  0.91860004E+00  0.85257213E+00  0.94306647E+00
  0.16461914E+00  0.42838327E+00  0.18310204E+00
  0.93133499E-01  0.34522619E+00  0.81363447E+00
  0.85568708E+00  0.91727415E+00  0.57971763E+00
  0.42203508E+00  0.17254770E+00  0.32158768E+00
  0.64258426E+00  0.58978308E+00  0.54032542E-01
  0.42614643E+00  0.84905046E+00  0.82259789E+00
  0.66205526E+00  0.40927623E+00  0.56939851E+00
  0.83841547E-01  0.63384354E+00  0.31946347E+00
  0.83779107E+00  0.74964622E-01  0.64036067E-01
  0.92542775E+00  0.14883579E+00  0.43679952E+00
  0.18174206E+00  0.57582408E+00  0.67521612E+00
  0.57458797E+00  0.33511211E+00  0.93327453E+00
  0.34366380E+00  0.91628300E+00  0.17085714E+00
  0.17847799E+00  0.16967621E+00  0.73424402E+00
  0.81383289E+00  0.67629516E+00  0.98255521E+00
  0.32935019E+00  0.32956713E+00  0.26668959E+00
  0.68145454E+00  0.83690408E+00  0.52329300E+00
  0.82440311E+00  0.32303418E+00  0.50310664E+00
  0.17979038E+00  0.81294304E+00  0.22596063E+00
  0.67716405E+00  0.18623312E+00  0.98494196E+00
  0.31855391E+00  0.67430134E+00  0.74926555E+00
  0.66992578E+00  0.67645064E+00  0.25303607E+00
  0.31539893E+00  0.18285274E+00  0.49072145E+00
  0.81560002E+00  0.82690840E+00  0.76927027E+00
  0.18900978E+00  0.31816382E+00  0.16006978E-02
  0.31891586E+00  0.80290142E+00  0.99134223E+00
  0.68391962E+00  0.32237418E+00  0.75478110E+00
  0.18282783E+00  0.67788973E+00  0.51136273E+00
  0.82027995E+00  0.17719332E+00  0.25536790E+00
  0.45853358E-02  0.99388491E+00  0.81429071E-03
  0.98524683E+00  0.49416509E+00  0.24477189E+00
  0.51351363E+00  0.50520621E+00  0.50154363E+00
  0.50303718E+00  0.99816396E+00  0.74156694E+00
  0.49942058E+00  0.68228976E-02  0.24479127E+00
  0.49310298E+00  0.50024489E+00  0.43309678E-02
  0.24627201E-02  0.49744067E+00  0.74641548E+00
  0.50251559E-02  0.98881347E+00  0.50245087E+00
  0.11560290E+00  0.25487343E+00  0.37059127E+00
  0.74895528E+00  0.62644449E+00  0.61916795E+00
  0.37402071E+00  0.24942792E+00  0.87190103E+00
  0.75173968E+00  0.86698069E+00  0.12692373E+00
  0.62324181E+00  0.75197229E+00  0.87645889E+00
  0.24814372E+00  0.37153526E+00  0.62785148E+00
  0.86663192E+00  0.73523664E+00  0.37038424E+00
  0.25194354E+00  0.12636260E+00  0.12237776E+00
  0.87209002E+00  0.25586816E+00  0.88412032E+00
  0.25769695E+00  0.86757295E+00  0.62734812E+00
  0.63149151E+00  0.24171279E+00  0.37570424E+00
  0.25762585E+00  0.62644078E+00  0.12616990E+00
  0.35611917E+00  0.76180364E+00  0.36452000E+00
  0.75741140E+00  0.13026684E+00  0.62071453E+00
  0.13377092E+00  0.74694545E+00  0.87346299E+00
  0.73671189E+00  0.37083659E+00  0.12788111E+00
  0.10245397E-01  0.99425373E+00  0.24648282E+00
  0.99877336E+00  0.50378727E+00  0.50335557E+00
  0.50997226E+00  0.49442106E+00  0.74965734E+00
  0.49712861E+00  0.49368401E-02  0.98870445E+00
  0.22065094E-02  0.50040798E+00  0.99597176E+00
  0.35904356E-03  0.99838083E+00  0.75193248E+00
  0.48758010E+00  0.99973869E-02  0.50108764E+00
  0.50144592E+00  0.50325293E+00  0.25167137E+00
  0.32859196E-01  0.19357029E+00  0.78706899E+00
  0.79216259E+00  0.53912259E+00  0.21085208E-01
  0.46487761E+00  0.30781294E+00  0.27760046E+00
  0.69764068E+00  0.97357583E+00  0.52891010E+00
  0.54338174E+00  0.82026331E+00  0.48077982E+00
  0.31128728E+00  0.46994948E+00  0.22178349E+00
  0.96805611E+00  0.68649154E+00  0.97320958E+00
  0.19069354E+00  0.28176934E-01  0.73073770E+00
  0.97045287E+00  0.31292225E+00  0.47572835E+00
  0.19166302E+00  0.96345002E+00  0.22296468E+00
  0.52947010E+00  0.19065560E+00  0.96916798E+00
  0.30385049E+00  0.52963071E+00  0.71724558E+00
  0.46646687E+00  0.70173592E+00  0.78213688E+00
  0.69993811E+00  0.41588810E-01  0.31551025E-01
  0.36526498E-01  0.80241081E+00  0.27583081E+00
  0.79748613E+00  0.46060844E+00  0.53058493E+00
  0.52763816E+00  0.69840537E+00  0.27730702E+00
  0.30023720E+00  0.35757438E-01  0.53185858E+00
  0.97189338E+00  0.79737070E+00  0.77852491E+00
  0.20080344E+00  0.47188567E+00  0.28584234E-01
  0.39118131E-01  0.29959322E+00  0.97644720E+00
  0.80648226E+00  0.96378831E+00  0.72002950E+00
  0.46783526E+00  0.19833016E+00  0.46779021E+00
  0.68602066E+00  0.53538335E+00  0.22802011E+00
  0.47583119E+00  0.81657777E+00  0.97010517E+00
  0.69337731E+00  0.46215671E+00  0.72212817E+00
  0.26132018E-01  0.69288696E+00  0.46857727E+00
  0.80302809E+00  0.27093866E-01  0.21781129E+00
  0.96841611E+00  0.19304484E+00  0.27950843E+00
  0.20175959E+00  0.54010971E+00  0.52982456E+00
  0.54320362E+00  0.30870031E+00  0.78324443E+00
  0.31211531E+00  0.96640076E+00  0.29098498E-01
  0.54460687E-01  0.99117920E-01  0.92514910E-01
  0.89997248E+00  0.54909951E+00  0.35884124E+00
  0.45587321E+00  0.40073856E+00  0.58536929E+00
  0.60302104E+00  0.95818162E+00  0.85038382E+00
  0.54597613E+00  0.90066042E+00  0.16589941E+00
  0.40480024E+00  0.45554345E+00  0.90163277E+00
  0.93941704E+00  0.60008119E+00  0.65398905E+00
  0.99236714E-01  0.50511827E-01  0.41008372E+00
  0.93781991E+00  0.39390382E+00  0.16201527E+00
  0.11425175E+00  0.93649444E+00  0.91206225E+00
  0.54277465E+00  0.11121186E+00  0.66262926E+00
  0.39574819E+00  0.56208695E+00  0.40994393E+00
  0.46217297E+00  0.61168172E+00  0.93101851E-01
  0.61349515E+00  0.66665790E-01  0.33771885E+00
  0.38240520E-01  0.89124174E+00  0.60264966E+00
  0.89024980E+00  0.44090523E+00  0.82538310E+00
  0.55903276E+00  0.60909093E+00  0.58731374E+00
  0.40261704E+00  0.44743597E-01  0.83858963E+00
  0.95115683E+00  0.89743841E+00  0.85498134E-01
  0.10464331E+00  0.46441994E+00  0.34471340E+00
  0.63165626E-01  0.39504336E+00  0.66485651E+00
  0.89791364E+00  0.94540647E+00  0.40567656E+00
  0.43804617E+00  0.10556941E+00  0.16501984E+00
  0.59580236E+00  0.54640759E+00  0.90818500E+00
  0.44121775E+00  0.90667641E+00  0.65662407E+00
  0.60247348E+00  0.43524071E+00  0.42115973E+00
  0.58883852E-01  0.59224502E+00  0.15942529E+00
  0.89483924E+00  0.45359838E-01  0.91569814E+00
  0.95270797E+00  0.11171902E+00  0.59862649E+00
  0.10597871E+00  0.54935162E+00  0.84703126E+00
  0.54948424E+00  0.39847887E+00  0.91289552E-01
  0.39735348E+00  0.94788151E+00  0.34233231E+00
  0.15201208E+00  0.21880656E+00  0.57782274E+00
  0.77186701E+00  0.64923921E+00  0.82380188E+00
  0.35496189E+00  0.27710334E+00  0.74033535E-01
  0.71716860E+00  0.84486254E+00  0.30929108E+00
  0.64975382E+00  0.77882287E+00  0.68175280E+00
  0.27687933E+00  0.35018795E+00  0.42972112E+00
  0.84531281E+00  0.72088502E+00  0.17667001E+00
  0.23139064E+00  0.15526481E+00  0.93504475E+00
  0.85893026E+00  0.27807637E+00  0.68213495E+00
  0.22659063E+00  0.85771901E+00  0.44138696E+00
  0.64551107E+00  0.22847710E+00  0.17250991E+00
  0.28367836E+00  0.65452211E+00  0.92198805E+00