cif2pos.py
1.0
    13.23607000     0.00000000     0.00000000
     0.00000000    13.23607000     0.00000000
     0.00000000     0.00000000    12.70170600
  Zr  Li  La  O
  16  56  24  96
Direct
     0.00000000     0.25000000     0.12500000
     0.75000000     0.50000000     0.37500000
     0.50000000     0.25000000     0.62500000
     0.75000000     0.00000000     0.87500000
     0.50000000     0.75000000     0.12500000
     0.25000000     0.50000000     0.87500000
     0.00000000     0.75000000     0.62500000
     0.25000000     0.00000000     0.37500000
     0.25000000     0.00000000     0.87500000
     0.25000000     0.50000000     0.37500000
     0.75000000     0.00000000     0.37500000
     0.75000000     0.50000000     0.87500000
     0.50000000     0.75000000     0.62500000
     0.00000000     0.75000000     0.12500000
     0.00000000     0.25000000     0.62500000
     0.50000000     0.25000000     0.12500000
     0.08051550     0.16246550     0.93085650
     0.83753450     0.58051550     0.18085650
     0.41948450     0.33753450     0.43085650
     0.66246550     0.91948450     0.68085650
     0.58051550     0.83753450     0.31914350
     0.33753450     0.41948450     0.06914350
     0.91948450     0.66246550     0.81914350
     0.16246550     0.08051550     0.56914350
     0.91948450     0.33753450     0.31914350
     0.16246550     0.91948450     0.06914350
     0.58051550     0.16246550     0.81914350
     0.33753450     0.58051550     0.56914350
     0.41948450     0.66246550     0.93085650
     0.66246550     0.08051550     0.18085650
     0.08051550     0.83753450     0.43085650
     0.83753450     0.41948450     0.68085650
     0.58051550     0.66246550     0.43085650
     0.33753450     0.08051550     0.68085650
     0.91948450     0.83753450     0.93085650
     0.16246550     0.41948450     0.18085650
     0.08051550     0.33753450     0.81914350
     0.83753450     0.91948450     0.56914350
     0.41948450     0.16246550     0.31914350
     0.66246550     0.58051550     0.06914350
     0.41948450     0.83753450     0.81914350
     0.66246550     0.41948450     0.56914350
     0.08051550     0.66246550     0.31914350
     0.83753450     0.08051550     0.06914350
     0.91948450     0.16246550     0.43085650
     0.16246550     0.58051550     0.68085650
     0.58051550     0.33753450     0.93085650
     0.33753450     0.91948450     0.18085650
     0.18121100     0.18121100     0.75000000
     0.81878900     0.68121100     0.00000000
     0.31878900     0.31878900     0.25000000
     0.68121100     0.81878900     0.50000000
     0.81878900     0.31878900     0.50000000
     0.18121100     0.81878900     0.25000000
     0.68121100     0.18121100     0.00000000
     0.31878900     0.68121100     0.75000000
     0.68121100     0.68121100     0.25000000
     0.31878900     0.18121100     0.50000000
     0.81878900     0.81878900     0.75000000
     0.18121100     0.31878900     0.00000000
     0.31878900     0.81878900     0.00000000
     0.68121100     0.31878900     0.75000000
     0.18121100     0.68121100     0.50000000
     0.81878900     0.18121100     0.25000000
     0.00000000     0.00000000     0.00000000
     0.00000000     0.50000000     0.25000000
     0.50000000     0.50000000     0.50000000
     0.50000000     0.00000000     0.75000000
     0.50000000     0.00000000     0.25000000
     0.50000000     0.50000000     0.00000000
     0.00000000     0.50000000     0.75000000
     0.00000000     0.00000000     0.50000000
     0.12737000     0.25000000     0.37500000
     0.75000000     0.62737000     0.62500000
     0.37263000     0.25000000     0.87500000
     0.75000000     0.87263000     0.12500000
     0.62737000     0.75000000     0.87500000
     0.25000000     0.37263000     0.62500000
     0.87263000     0.75000000     0.37500000
     0.25000000     0.12737000     0.12500000
     0.87263000     0.25000000     0.87500000
     0.25000000     0.87263000     0.62500000
     0.62737000     0.25000000     0.37500000
     0.25000000     0.62737000     0.12500000
     0.37263000     0.75000000     0.37500000
     0.75000000     0.12737000     0.62500000
     0.12737000     0.75000000     0.87500000
     0.75000000     0.37263000     0.12500000
     0.00000000     0.00000000     0.25000000
     0.00000000     0.50000000     0.50000000
     0.50000000     0.50000000     0.75000000
     0.50000000     0.00000000     0.00000000
     0.00000000     0.50000000     0.00000000
     0.00000000     0.00000000     0.75000000
     0.50000000     0.00000000     0.50000000
     0.50000000     0.50000000     0.25000000
     0.03461600     0.19451700     0.77870400
     0.80548300     0.53461600     0.02870400
     0.46538400     0.30548300     0.27870400
     0.69451700     0.96538400     0.52870400
     0.53461600     0.80548300     0.47129600
     0.30548300     0.46538400     0.22129600
     0.96538400     0.69451700     0.97129600
     0.19451700     0.03461600     0.72129600
     0.96538400     0.30548300     0.47129600
     0.19451700     0.96538400     0.22129600
     0.53461600     0.19451700     0.97129600
     0.30548300     0.53461600     0.72129600
     0.46538400     0.69451700     0.77870400
     0.69451700     0.03461600     0.02870400
     0.03461600     0.80548300     0.27870400
     0.80548300     0.46538400     0.52870400
     0.53461600     0.69451700     0.27870400
     0.30548300     0.03461600     0.52870400
     0.96538400     0.80548300     0.77870400
     0.19451700     0.46538400     0.02870400
     0.03461600     0.30548300     0.97129600
     0.80548300     0.96538400     0.72129600
     0.46538400     0.19451700     0.47129600
     0.69451700     0.53461600     0.22129600
     0.46538400     0.80548300     0.97129600
     0.69451700     0.46538400     0.72129600
     0.03461600     0.69451700     0.47129600
     0.80548300     0.03461600     0.22129600
     0.96538400     0.19451700     0.27870400
     0.19451700     0.53461600     0.52870400
     0.53461600     0.30548300     0.77870400
     0.30548300     0.96538400     0.02870400
     0.05496300     0.10244300     0.09066700
     0.89755700     0.55496300     0.34066700
     0.44503700     0.39755700     0.59066700
     0.60244300     0.94503700     0.84066700
     0.55496300     0.89755700     0.15933300
     0.39755700     0.44503700     0.90933300
     0.94503700     0.60244300     0.65933300
     0.10244300     0.05496300     0.40933300
     0.94503700     0.39755700     0.15933300
     0.10244300     0.94503700     0.90933300
     0.55496300     0.10244300     0.65933300
     0.39755700     0.55496300     0.40933300
     0.44503700     0.60244300     0.09066700
     0.60244300     0.05496300     0.34066700
     0.05496300     0.89755700     0.59066700
     0.89755700     0.44503700     0.84066700
     0.55496300     0.60244300     0.59066700
     0.39755700     0.05496300     0.84066700
     0.94503700     0.89755700     0.09066700
     0.10244300     0.44503700     0.34066700
     0.05496300     0.39755700     0.65933300
     0.89755700     0.94503700     0.40933300
     0.44503700     0.10244300     0.15933300
     0.60244300     0.55496300     0.90933300
     0.44503700     0.89755700     0.65933300
     0.60244300     0.44503700     0.40933300
     0.05496300     0.60244300     0.15933300
     0.89755700     0.05496300     0.90933300
     0.94503700     0.10244300     0.59066700
     0.10244300     0.55496300     0.84066700
     0.55496300     0.39755700     0.09066700
     0.39755700     0.94503700     0.34066700
     0.15082300     0.22322700     0.57123600
     0.77677300     0.65082300     0.82123600
     0.34917700     0.27677300     0.07123600
     0.72322700     0.84917700     0.32123600
     0.65082300     0.77677300     0.67876400
     0.27677300     0.34917700     0.42876400
     0.84917700     0.72322700     0.17876400
     0.22322700     0.15082300     0.92876400
     0.84917700     0.27677300     0.67876400
     0.22322700     0.84917700     0.42876400
     0.65082300     0.22322700     0.17876400
     0.27677300     0.65082300     0.92876400
     0.34917700     0.72322700     0.57123600
     0.72322700     0.15082300     0.82123600
     0.15082300     0.77677300     0.07123600
     0.77677300     0.34917700     0.32123600
     0.65082300     0.72322700     0.07123600
     0.27677300     0.15082300     0.32123600
     0.84917700     0.77677300     0.57123600
     0.22322700     0.34917700     0.82123600
     0.15082300     0.27677300     0.17876400
     0.77677300     0.84917700     0.92876400
     0.34917700     0.22322700     0.67876400
     0.72322700     0.65082300     0.42876400
     0.34917700     0.77677300     0.17876400
     0.72322700     0.34917700     0.92876400
     0.15082300     0.72322700     0.67876400
     0.77677300     0.15082300     0.42876400
     0.84917700     0.22322700     0.07123600
     0.22322700     0.65082300     0.32123600
     0.65082300     0.27677300     0.57123600
     0.27677300     0.84917700     0.82123600
