cif2pos.py                              
    1.000000000000000     
    14.2620000000000005    0.0000000000000000    0.0000000000000000
     0.0000000000000000   14.2620000000000005    0.0000000000000000
     0.0000000000000000    0.0000000000000000    4.7539999999999996
   Li   Ag   O 
     1    36    18
Direct
  0.3229015786496163  0.8214859081423106  0.2936906332150011
  0.0822844561161793  0.0705658647275368  0.7417292580148651
  0.2505635691869295  0.2438513120130597  0.7622984734839289
  0.2965615240000853  0.0631377399668073  0.2577095814936285
  0.1030601071271325  0.2268484364710044  0.2303599610673464
  0.4295658395124900  0.0533229519546768  0.7617106647776173
  0.5479885631588354  0.2621991728096981  0.8062796089581008
  0.5938303460580869  0.1156079180529813  0.2702931312153539
  0.3861401777338554  0.2551284154883585  0.2835179139086723
  0.7166654623684504  0.0790509281436140  0.6971030655376120
  0.9258886031317675  0.2318416741647909  0.7644563635687402
  0.8920351596979808  0.0911719369614228  0.2348759444729513
  0.7343562915548920  0.2661196037397182  0.3113100786332811
  0.0903332515363253  0.4094044048991739  0.7521152802170700
  0.2856409470626221  0.5932306014209826  0.7679364182714247
  0.2311478326687418  0.4423385836104953  0.3046469121039920
  0.0248677697902763  0.5481035326381117  0.2616541650747332
  0.4083806465695854  0.4411276786311593  0.7776102052678306
  0.5968259769819855  0.6050452130882020  0.7609317362109781
  0.5643041994364224  0.4351653441909338  0.2540281751983822
  0.3923909675399885  0.6176306294984314  0.2586900097602778
  0.7422203431419511  0.4156764312642099  0.7503947701914134
  0.9249443503416839  0.5939703420432730  0.7669836766061118
  0.9146679290985785  0.3783046016344025  0.2657459114954799
  0.7756085270251233  0.5720290918362617  0.2635929910700108
  0.1053257614518216  0.7725214890553260  0.7181214889786608
  0.2587790058374387  0.9208102487005922  0.7785756538851152
  0.1801619105782843  0.6744699324871766  0.2348662023334187
  0.0843229770776008  0.9245574120990807  0.2023611152676089
  0.4479118067018384  0.7793313185490292  0.7899416846785539
  0.6120873274561061  0.8624596212342461  0.6957829327182434
  0.5825337829285929  0.7318456682013725  0.2875210710983911
  0.5203130325485621  0.9267201243345805  0.2490194002068671
  0.7658291916976986  0.7468496802557548  0.7275705174820948
  0.8921499175408798  0.9369017093954879  0.6435713009298772
  0.9282309933640872  0.7587954577586776  0.2178477617574617
  0.7256036859163078  0.9327699275817317  0.1824636650931219
 -0.0284569863081641  0.0041677650148996 -0.0387317265689385
  0.1893103622209314  0.1391734047033634  0.4931254364985979
  0.3647118293161390 -0.0492036765591042  0.0431222495093856
  0.4777190233325811  0.1717719382748533  0.5344091059530864
  0.6164340522379471  0.0102438241913519 -0.0575497361113159
  0.8183229234219237  0.1743301895223158  0.5438282225440420
  0.0154331169170441  0.3155867010268585  0.0009846922340996
  0.1484065274453118  0.5341123420952698  0.5469164237219017
  0.3167480304274898  0.3510687049414020  0.0415013289364440
  0.4865749366685926  0.5309543564038512  0.4933004550105640
  0.6504645663993169  0.3443959660860346  0.0286388972682218
  0.8571510636008134  0.4898331488930424  0.5286827433139956
  0.0242699053923178  0.6896068810239514 -0.0259986498278927
  0.1922707837138654  0.8467714847774658  0.4411348499201493
  0.3178087696619436  0.7219791791056581  0.0133139814618578
  0.4520904943720573  0.7883544439332096  0.3322731148126489
  0.6926350340985984  0.6706898367130454  0.0409027676394402
  0.8207223735259102  0.8421686949976415  0.3784376678101448
 
 -0.31861193E-02 -0.12985965E-01 -0.31392458E-02
  0.12915527E-02 -0.99367503E-03  0.79323178E-03
 -0.15296126E-02  0.74995785E-03 -0.13391281E-03
 -0.21593607E-03  0.32200527E-02 -0.32541618E-02
 -0.11728895E-02 -0.22997065E-02  0.22394257E-02
  0.26238057E-02  0.39276035E-04 -0.23054937E-02
  0.11315741E-02 -0.12797184E-02 -0.19134156E-02
  0.10329496E-02  0.37432510E-02  0.40383457E-02
  0.31163238E-02  0.88792687E-03 -0.28635308E-02
 -0.90706997E-03  0.72503718E-04  0.79321828E-03
 -0.24047560E-02 -0.19621786E-04  0.35192077E-03
 -0.54546026E-03 -0.62049793E-03  0.14619806E-02
 -0.18511830E-02  0.10390587E-02  0.15637776E-02
 -0.65960459E-03  0.19415664E-03  0.14839704E-02
 -0.25829929E-02  0.44372412E-03 -0.62190203E-03
 -0.56695246E-03  0.21006942E-03  0.87399135E-03
  0.17941046E-02 -0.70254681E-03 -0.94180926E-03
 -0.99064599E-03  0.89748334E-04 -0.36066523E-03
 -0.31673907E-02 -0.17342716E-03  0.58346161E-03
  0.17917443E-02 -0.37096459E-03 -0.34369715E-02
 -0.40764969E-03 -0.55043511E-03 -0.16517271E-02
 -0.59173924E-03 -0.10436300E-03 -0.86869472E-03
 -0.12221944E-02  0.84381138E-03 -0.27055946E-02
  0.67645425E-03  0.70573826E-04  0.61770431E-03
  0.21459543E-02 -0.67473236E-03 -0.33574124E-03
  0.27164613E-03 -0.28908218E-02  0.22682646E-03
 -0.18808745E-02  0.37809858E-04  0.89170970E-03
  0.32860914E-03 -0.44896579E-03  0.31665791E-02
  0.39193016E-03 -0.35101314E-02  0.18483380E-03
  0.22993367E-02  0.18464616E-02 -0.20605133E-02
  0.12532956E-02  0.48221301E-02 -0.12993648E-02
 -0.10872690E-02  0.59029178E-03 -0.38436884E-03
 -0.51286892E-03 -0.18450772E-02  0.22048670E-02
 -0.25275453E-03  0.15065337E-02 -0.15538248E-02
  0.17243005E-02  0.16047233E-02  0.31696938E-03
  0.71449135E-03 -0.16920308E-02  0.28004394E-02
 -0.31121157E-04  0.11216302E-03 -0.45713845E-03
  0.28719627E-02  0.82044752E-02 -0.36001532E-02
 -0.16272469E-03  0.31921848E-02  0.27914230E-02
  0.43187928E-02 -0.76881208E-02  0.38005201E-02
 -0.18997052E-02  0.30919486E-03  0.34313631E-03
  0.34873440E-02 -0.31560226E-02  0.48796634E-02
  0.39832104E-02 -0.60977427E-02 -0.99392043E-03
 -0.18141848E-02  0.26897201E-02  0.10109714E-02
 -0.46872155E-02  0.95462774E-03  0.11483485E-02
  0.23720368E-02 -0.66090725E-03 -0.32254239E-04
 -0.56349474E-02 -0.54732552E-03 -0.37735126E-02
  0.38383699E-02  0.14560591E-02 -0.43870617E-03
 -0.23846686E-02 -0.16167806E-02 -0.43731829E-02
 -0.35222414E-02 -0.41946663E-02  0.45894097E-02
  0.19645916E-02 -0.16048176E-02 -0.21100437E-02
 -0.42560822E-02 -0.55117590E-03 -0.29257119E-02
  0.40863660E-02 -0.50301500E-02  0.10223336E-01
  0.10944839E-02 -0.22498237E-02  0.52855506E-02
 -0.23073859E-02 -0.43323666E-02  0.27795735E-02
 
            1
    1.000000000000000     
  0.15059334E+01 -0.39614892E-02 -0.53167437E-02  0.15105725E+01
  0.32267818E+00  0.82057538E+00  0.29303030E+00
  0.82375015E-01  0.70496192E-01  0.74189611E+00
  0.25045632E+00  0.24390390E+00  0.76227031E+00
  0.29654638E+00  0.63363518E-01  0.25702507E+00
  0.10297787E+00  0.22668719E+00  0.23083102E+00
  0.42974981E+00  0.53325706E-01  0.76122571E+00
  0.54806791E+00  0.26210944E+00  0.80587712E+00
  0.59390277E+00  0.11587038E+00  0.27114259E+00
  0.38635868E+00  0.25519067E+00  0.28291557E+00
  0.71660186E+00  0.79056012E-01  0.69726992E+00
  0.92571999E+00  0.23184030E+00  0.76453039E+00
  0.89199691E+00  0.91128430E-01  0.23518347E+00
  0.73422649E+00  0.26619246E+00  0.31163902E+00
  0.90287002E-01  0.40941802E+00  0.75242743E+00
  0.28545984E+00  0.59326171E+00  0.76780560E+00
  0.23110808E+00  0.44235331E+00  0.30483076E+00
  0.24993566E-01  0.54805427E+00  0.26145606E+00
  0.40831119E+00  0.44113397E+00  0.77753434E+00
  0.59660389E+00  0.60503305E+00  0.76105447E+00
  0.56442983E+00  0.43513933E+00  0.25330521E+00
  0.39236238E+00  0.61759203E+00  0.25834257E+00
  0.74217885E+00  0.41566911E+00  0.75021204E+00
  0.92485865E+00  0.59402951E+00  0.76641456E+00
  0.91471536E+00  0.37830955E+00  0.26587585E+00
  0.77575899E+00  0.57198178E+00  0.26352237E+00
  0.10534481E+00  0.77231880E+00  0.71816920E+00
  0.25864713E+00  0.92081290E+00  0.77876322E+00
  0.18018495E+00  0.67443845E+00  0.23553229E+00
  0.84350458E-01  0.92431129E+00  0.20239999E+00
  0.44807303E+00  0.77946079E+00  0.78950826E+00
  0.61217520E+00  0.86279773E+00  0.69550961E+00
  0.58245755E+00  0.73188706E+00  0.28744022E+00
  0.52027707E+00  0.92659075E+00  0.24948319E+00
  0.76581147E+00  0.74695531E+00  0.72724367E+00
  0.89227082E+00  0.93701423E+00  0.64363798E+00
  0.92828109E+00  0.75867682E+00  0.21843683E+00
  0.72560150E+00  0.93277779E+00  0.18236751E+00
  0.97174439E+00  0.47430332E-02  0.96051098E+00
  0.18929895E+00  0.13939723E+00  0.49371261E+00
  0.36501465E+00  0.95025726E+00  0.43921686E-01
  0.47758582E+00  0.17179362E+00  0.53448128E+00
  0.61667857E+00  0.10022535E-01  0.94347670E+00
  0.81860221E+00  0.17390264E+00  0.54361915E+00
  0.15305913E-01  0.31577529E+00  0.11973492E-02
  0.14807788E+00  0.53417928E+00  0.54715798E+00
  0.31691435E+00  0.35102236E+00  0.41494544E-01
  0.48617983E+00  0.53091598E+00  0.49250670E+00
  0.65073370E+00  0.34449806E+00  0.28546616E-01
  0.85698386E+00  0.48971979E+00  0.52776285E+00
  0.24022939E-01  0.68931277E+00  0.97496673E+00
  0.19240853E+00  0.84665896E+00  0.44069100E+00
  0.31751035E+00  0.72194053E+00  0.12698560E-01
  0.45237702E+00  0.78800175E+00  0.33442359E+00
  0.69271178E+00  0.67053209E+00  0.42014579E-01
  0.82056059E+00  0.84186493E+00  0.37902235E+00
  0.00000000E+00  0.00000000E+00  0.00000000E+00
  0.00000000E+00  0.00000000E+00  0.00000000E+00
  0.00000000E+00  0.00000000E+00  0.00000000E+00
  0.00000000E+00  0.00000000E+00  0.00000000E+00
  0.00000000E+00  0.00000000E+00  0.00000000E+00
  0.00000000E+00  0.00000000E+00  0.00000000E+00
  0.00000000E+00  0.00000000E+00  0.00000000E+00
  0.00000000E+00  0.00000000E+00  0.00000000E+00
  0.00000000E+00  0.00000000E+00  0.00000000E+00
  0.00000000E+00  0.00000000E+00  0.00000000E+00
  0.00000000E+00  0.00000000E+00  0.00000000E+00
  0.00000000E+00  0.00000000E+00  0.00000000E+00
  0.00000000E+00  0.00000000E+00  0.00000000E+00
  0.00000000E+00  0.00000000E+00  0.00000000E+00
  0.00000000E+00  0.00000000E+00  0.00000000E+00
  0.00000000E+00  0.00000000E+00  0.00000000E+00
  0.00000000E+00  0.00000000E+00  0.00000000E+00
  0.00000000E+00  0.00000000E+00  0.00000000E+00
  0.00000000E+00  0.00000000E+00  0.00000000E+00
  0.00000000E+00  0.00000000E+00  0.00000000E+00
  0.00000000E+00  0.00000000E+00  0.00000000E+00
  0.00000000E+00  0.00000000E+00  0.00000000E+00
  0.00000000E+00  0.00000000E+00  0.00000000E+00
  0.00000000E+00  0.00000000E+00  0.00000000E+00
  0.00000000E+00  0.00000000E+00  0.00000000E+00
  0.00000000E+00  0.00000000E+00  0.00000000E+00
  0.00000000E+00  0.00000000E+00  0.00000000E+00
  0.00000000E+00  0.00000000E+00  0.00000000E+00
  0.00000000E+00  0.00000000E+00  0.00000000E+00
  0.00000000E+00  0.00000000E+00  0.00000000E+00
  0.00000000E+00  0.00000000E+00  0.00000000E+00
  0.00000000E+00  0.00000000E+00  0.00000000E+00
  0.00000000E+00  0.00000000E+00  0.00000000E+00
  0.00000000E+00  0.00000000E+00  0.00000000E+00
  0.00000000E+00  0.00000000E+00  0.00000000E+00
  0.00000000E+00  0.00000000E+00  0.00000000E+00
  0.00000000E+00  0.00000000E+00  0.00000000E+00
  0.00000000E+00  0.00000000E+00  0.00000000E+00
  0.00000000E+00  0.00000000E+00  0.00000000E+00
  0.00000000E+00  0.00000000E+00  0.00000000E+00
  0.00000000E+00  0.00000000E+00  0.00000000E+00
  0.00000000E+00  0.00000000E+00  0.00000000E+00
  0.00000000E+00  0.00000000E+00  0.00000000E+00
  0.00000000E+00  0.00000000E+00  0.00000000E+00
  0.00000000E+00  0.00000000E+00  0.00000000E+00
  0.00000000E+00  0.00000000E+00  0.00000000E+00
  0.00000000E+00  0.00000000E+00  0.00000000E+00
  0.00000000E+00  0.00000000E+00  0.00000000E+00
  0.00000000E+00  0.00000000E+00  0.00000000E+00
  0.00000000E+00  0.00000000E+00  0.00000000E+00
  0.00000000E+00  0.00000000E+00  0.00000000E+00
  0.00000000E+00  0.00000000E+00  0.00000000E+00
  0.00000000E+00  0.00000000E+00  0.00000000E+00
  0.00000000E+00  0.00000000E+00  0.00000000E+00
  0.00000000E+00  0.00000000E+00  0.00000000E+00
  0.00000000E+00  0.00000000E+00  0.00000000E+00
  0.00000000E+00  0.00000000E+00  0.00000000E+00
  0.00000000E+00  0.00000000E+00  0.00000000E+00
  0.00000000E+00  0.00000000E+00  0.00000000E+00
  0.00000000E+00  0.00000000E+00  0.00000000E+00
  0.00000000E+00  0.00000000E+00  0.00000000E+00
  0.00000000E+00  0.00000000E+00  0.00000000E+00
  0.00000000E+00  0.00000000E+00  0.00000000E+00
  0.00000000E+00  0.00000000E+00  0.00000000E+00
  0.00000000E+00  0.00000000E+00  0.00000000E+00
  0.00000000E+00  0.00000000E+00  0.00000000E+00
  0.00000000E+00  0.00000000E+00  0.00000000E+00
  0.00000000E+00  0.00000000E+00  0.00000000E+00
  0.00000000E+00  0.00000000E+00  0.00000000E+00
  0.00000000E+00  0.00000000E+00  0.00000000E+00
  0.00000000E+00  0.00000000E+00  0.00000000E+00
  0.00000000E+00  0.00000000E+00  0.00000000E+00
  0.00000000E+00  0.00000000E+00  0.00000000E+00
  0.00000000E+00  0.00000000E+00  0.00000000E+00
  0.00000000E+00  0.00000000E+00  0.00000000E+00
  0.00000000E+00  0.00000000E+00  0.00000000E+00
  0.00000000E+00  0.00000000E+00  0.00000000E+00
  0.00000000E+00  0.00000000E+00  0.00000000E+00
  0.00000000E+00  0.00000000E+00  0.00000000E+00
  0.00000000E+00  0.00000000E+00  0.00000000E+00
  0.00000000E+00  0.00000000E+00  0.00000000E+00
  0.00000000E+00  0.00000000E+00  0.00000000E+00
  0.00000000E+00  0.00000000E+00  0.00000000E+00
  0.00000000E+00  0.00000000E+00  0.00000000E+00
  0.00000000E+00  0.00000000E+00  0.00000000E+00
  0.00000000E+00  0.00000000E+00  0.00000000E+00
  0.00000000E+00  0.00000000E+00  0.00000000E+00
  0.00000000E+00  0.00000000E+00  0.00000000E+00
  0.00000000E+00  0.00000000E+00  0.00000000E+00
  0.00000000E+00  0.00000000E+00  0.00000000E+00
  0.00000000E+00  0.00000000E+00  0.00000000E+00
  0.00000000E+00  0.00000000E+00  0.00000000E+00
  0.00000000E+00  0.00000000E+00  0.00000000E+00
  0.00000000E+00  0.00000000E+00  0.00000000E+00
  0.00000000E+00  0.00000000E+00  0.00000000E+00
  0.00000000E+00  0.00000000E+00  0.00000000E+00
  0.00000000E+00  0.00000000E+00  0.00000000E+00
  0.00000000E+00  0.00000000E+00  0.00000000E+00
  0.00000000E+00  0.00000000E+00  0.00000000E+00
  0.00000000E+00  0.00000000E+00  0.00000000E+00
  0.00000000E+00  0.00000000E+00  0.00000000E+00
  0.00000000E+00  0.00000000E+00  0.00000000E+00
  0.00000000E+00  0.00000000E+00  0.00000000E+00
  0.00000000E+00  0.00000000E+00  0.00000000E+00
  0.00000000E+00  0.00000000E+00  0.00000000E+00
  0.00000000E+00  0.00000000E+00  0.00000000E+00
  0.00000000E+00  0.00000000E+00  0.00000000E+00
  0.00000000E+00  0.00000000E+00  0.00000000E+00
  0.00000000E+00  0.00000000E+00  0.00000000E+00
  0.00000000E+00  0.00000000E+00  0.00000000E+00
