cif2pos.py
1.0
    14.26200000     0.00000000     0.00000000
     0.00000000    14.26200000     0.00000000
     0.00000000     0.00000000     4.75400000
  Li  Ag  O
  1  36  18
Direct
     0.33153000     0.67036000     0.44189000
     0.08333000     0.08333000     0.75000000
     0.25000000     0.25000000     0.75000000
     0.25000000     0.08333000     0.25000000
     0.08333000     0.25000000     0.25000000
     0.41667000     0.08333000     0.75000000
     0.58333000     0.25000000     0.75000000
     0.58333000     0.08333000     0.25000000
     0.41667000     0.25000000     0.25000000
     0.75000000     0.08333000     0.75000000
     0.91667000     0.25000000     0.75000000
     0.91667000     0.08333000     0.25000000
     0.75000000     0.25000000     0.25000000
     0.08333000     0.41667000     0.75000000
     0.25000000     0.58333000     0.75000000
     0.25000000     0.41667000     0.25000000
     0.08333000     0.58333000     0.25000000
     0.41667000     0.41667000     0.75000000
     0.58333000     0.58333000     0.75000000
     0.58333000     0.41667000     0.25000000
     0.41667000     0.58333000     0.25000000
     0.75000000     0.41667000     0.75000000
     0.91667000     0.58333000     0.75000000
     0.91667000     0.41667000     0.25000000
     0.75000000     0.58333000     0.25000000
     0.08333000     0.75000000     0.75000000
     0.25000000     0.91667000     0.75000000
     0.25000000     0.75000000     0.25000000
     0.08333000     0.91667000     0.25000000
     0.41667000     0.75000000     0.75000000
     0.58333000     0.91667000     0.75000000
     0.58333000     0.75000000     0.25000000
     0.41667000     0.91667000     0.25000000
     0.75000000     0.75000000     0.75000000
     0.91667000     0.91667000     0.75000000
     0.91667000     0.75000000     0.25000000
     0.75000000     0.91667000     0.25000000
     0.00000000     0.00000000     0.00000000
     0.16667000     0.16667000     0.50000000
     0.33333000     0.00000000     0.00000000
     0.50000000     0.16667000     0.50000000
     0.66667000     0.00000000     0.00000000
     0.83333000     0.16667000     0.50000000
     0.00000000     0.33333000     0.00000000
     0.16667000     0.50000000     0.50000000
     0.33333000     0.33333000     0.00000000
     0.50000000     0.50000000     0.50000000
     0.66667000     0.33333000     0.00000000
     0.83333000     0.50000000     0.50000000
     0.00000000     0.66667000     0.00000000
     0.16667000     0.83333000     0.50000000
     0.33333000     0.66667000     0.00000000
     0.50000000     0.83333000     0.50000000
     0.66667000     0.66667000     0.00000000
     0.83333000     0.83333000     0.50000000
