cif2pos.py                              
    1.000000000000000     
     3.6097274000000001    0.0000000000000000    0.0000000000000000
    -1.8048637000000001    3.1261156300000001    0.0000000000000000
     0.0000000000000000    0.0000000000000000    3.8546386099999999
   Li   N 
     3     1
Direct
  0.3333333300000021  0.6666666699999979  0.0000000000000000
  0.6666666699999979  0.3333333300000021  0.0000000000000000
  0.0000000000000000  0.0000000000000000  0.5000000000000000
  0.0000000000000000  0.0000000000000000  0.0000000000000000
 
  0.00000000E+00  0.00000000E+00  0.00000000E+00
  0.00000000E+00  0.00000000E+00  0.00000000E+00
  0.00000000E+00  0.00000000E+00  0.00000000E+00
  0.00000000E+00  0.00000000E+00  0.00000000E+00
