PREC=A
ENCUT=400
ISYM=0
ALGO=Fast
EDIFF=1.000000e-05
LREAL=False
KPAR=8
NELM=120
NELMIN=4
ISIF=2
ISMEAR=0
SIGMA=0.10000
NSW=0
LWAVE=F
LCHARG=F
#PSTRESS=0
KSPACING=10.0000
KGAMMA=.TRUE.
