cif2pos.py
1.0
     3.60972740     0.00000000     0.00000000
    -1.80486370     3.12611563     0.00000000
     0.00000000     0.00000000     3.85463861
  Li  N
  3  1
Direct
     0.33333333     0.66666667     0.00000000
     0.66666667     0.33333333     0.00000000
     0.00000000     0.00000000     0.50000000
     0.00000000     0.00000000     0.00000000
