cif2pos.py                              
    1.000000000000000     
    12.3071999999999999    0.0000000000000000    0.0000000000000000
     0.0000000000000000    3.7669000000000001    0.0000000000000000
    -1.9283262500000000    0.0000000000000000    6.3289541299999996
   Ti   O    Li
     8    16     1
Direct
  0.0959124550768028  0.0443249813040849  0.7000563846142279
  0.1649248712231996  0.1126688425610955  0.2534977647591845
  0.6102910329706304  0.4937491324723463  0.7146148734691581
  0.6797422105328458  0.3786181879949583  0.2529215324899529
  0.9000758868376599  0.0004895862191122  0.2999190805179940
  0.8268515961570900 -0.1332579232013955  0.7585244689632294
  0.4119876299218346  0.5013925464855173  0.2849592510217769
  0.3109099214032874  0.5656000356845974  0.7434492712352172
  0.0511399797951781  0.1456518477252295  0.3924631143243475
  0.1037527431766793  0.1290888423786560 -0.0129301387395224
  0.5617749260520860  0.3982143811645996  0.3852730830440508
  0.6088397583397189  0.3929158776348977 -0.0251548225758018
  0.9370710635380155 -0.0487468833703507  0.6126526243526401
  0.9007316740743641 -0.1244276145431537  1.0369931386017028
  0.4384386964248846  0.5589841372612464  0.6081687389471897
  0.4030647028933347  0.6192353379705141  1.0124895716637170
  0.1591431927346414  0.5683952077510480  0.7410470793242324
  0.2332727207005223  0.5714834049402530  0.3287653580346006
  0.6749619722674105 -0.0692429648419074  0.7889067710585196
  0.7396765973202297 -0.0904367894627596  0.3592020632235044
  0.8312313332509181  0.4337044441103276  0.2379350265400794
  0.7701278293532112  0.4116173006538337  0.6547436466560361
  0.3415146997754010  0.0791481844274058  0.2533626855111949
  0.2604352247679337  0.0601881785012426  0.6232415439662881
  0.4117977950272999  1.0474306523466510  0.5877332771652225
 
  0.53264013E-03  0.96161388E-03 -0.95161960E-03
  0.43013533E-02 -0.20303737E-02  0.74643396E-03
 -0.16327127E-02 -0.89406712E-03 -0.36807156E-02
 -0.19487139E-02 -0.30491779E-02  0.14981502E-02
  0.14100300E-02 -0.10464192E-02 -0.24070790E-02
 -0.63417509E-03  0.42674936E-02  0.18981898E-02
  0.68738710E-03 -0.13585274E-02 -0.57979029E-02
 -0.99193881E-06  0.22415765E-02 -0.12845438E-02
  0.48937232E-03  0.43587849E-02 -0.22612230E-02
  0.12139518E-02 -0.63215154E-02  0.26395778E-02
 -0.55507334E-02  0.18644836E-02  0.61545848E-02
 -0.82053370E-02  0.35927076E-03  0.90808612E-03
 -0.20036443E-02  0.33255826E-02  0.36308119E-02
  0.40347198E-02  0.20168199E-02  0.97070693E-02
  0.28469794E-02  0.31917091E-02 -0.42971967E-02
 -0.30538413E-02  0.17489831E-02  0.16583069E-02
  0.52569936E-02  0.16871623E-02 -0.17064088E-02
 -0.12080687E-03  0.52312636E-03  0.25013780E-02
  0.59456063E-03 -0.85625681E-02 -0.15309380E-02
 -0.66100525E-03  0.15271942E-02  0.22478725E-02
 -0.65944587E-03  0.27014114E-02  0.39952589E-03
  0.29519246E-02 -0.15356864E-02  0.41564933E-02
 -0.37839866E-02 -0.21433074E-02  0.42273221E-02
 -0.21148698E-02  0.43058272E-03  0.23784666E-02
  0.14632321E-02 -0.56038775E-02 -0.21713229E-02
 
            1
    1.000000000000000     
  0.59238811E+01 -0.69884417E-02 -0.59158018E-02  0.59303332E+01
  0.95932175E-01  0.44580261E-01  0.69990602E+00
  0.16529285E+00  0.11212984E+00  0.25361570E+00
  0.61006725E+00  0.49351178E+00  0.71403331E+00
  0.67962096E+00  0.37780872E+00  0.25315825E+00
  0.90013087E+00  0.21179302E-03  0.29953875E+00
  0.82684706E+00  0.86787497E+00  0.75882439E+00
  0.41189995E+00  0.50103190E+00  0.28404316E+00
  0.31087804E+00  0.56619511E+00  0.74324631E+00
  0.51123763E-01  0.14680898E+00  0.39210583E+00
  0.10391673E+00  0.12741067E+00  0.98748693E+00
  0.56147628E+00  0.39870935E+00  0.38624553E+00
  0.60819553E+00  0.39301125E+00  0.97498866E+00
  0.93699815E+00  0.95213596E+00  0.61322631E+00
  0.90129982E+00  0.87610779E+00  0.38526894E-01
  0.43856364E+00  0.55983144E+00  0.60748976E+00
  0.40285762E+00  0.61969964E+00  0.12751591E-01
  0.15952810E+00  0.56884310E+00  0.74077746E+00
  0.23332483E+00  0.57162228E+00  0.32916059E+00
  0.67497238E+00  0.92848393E+00  0.78866488E+00
  0.73967854E+00  0.90996864E+00  0.35955724E+00
  0.83118764E+00  0.43442159E+00  0.23799815E+00
  0.77047058E+00  0.41120962E+00  0.65540039E+00
  0.34131189E+00  0.78579200E-01  0.25403062E+00
  0.26032227E+00  0.60302485E-01  0.62361735E+00
  0.41186293E+00  0.45942989E-01  0.58739020E+00
  0.00000000E+00  0.00000000E+00  0.00000000E+00
  0.00000000E+00  0.00000000E+00  0.00000000E+00
  0.00000000E+00  0.00000000E+00  0.00000000E+00
  0.00000000E+00  0.00000000E+00  0.00000000E+00
  0.00000000E+00  0.00000000E+00  0.00000000E+00
  0.00000000E+00  0.00000000E+00  0.00000000E+00
  0.00000000E+00  0.00000000E+00  0.00000000E+00
  0.00000000E+00  0.00000000E+00  0.00000000E+00
  0.00000000E+00  0.00000000E+00  0.00000000E+00
  0.00000000E+00  0.00000000E+00  0.00000000E+00
  0.00000000E+00  0.00000000E+00  0.00000000E+00
  0.00000000E+00  0.00000000E+00  0.00000000E+00
  0.00000000E+00  0.00000000E+00  0.00000000E+00
  0.00000000E+00  0.00000000E+00  0.00000000E+00
  0.00000000E+00  0.00000000E+00  0.00000000E+00
  0.00000000E+00  0.00000000E+00  0.00000000E+00
  0.00000000E+00  0.00000000E+00  0.00000000E+00
  0.00000000E+00  0.00000000E+00  0.00000000E+00
  0.00000000E+00  0.00000000E+00  0.00000000E+00
  0.00000000E+00  0.00000000E+00  0.00000000E+00
  0.00000000E+00  0.00000000E+00  0.00000000E+00
  0.00000000E+00  0.00000000E+00  0.00000000E+00
  0.00000000E+00  0.00000000E+00  0.00000000E+00
  0.00000000E+00  0.00000000E+00  0.00000000E+00
  0.00000000E+00  0.00000000E+00  0.00000000E+00
  0.00000000E+00  0.00000000E+00  0.00000000E+00
  0.00000000E+00  0.00000000E+00  0.00000000E+00
  0.00000000E+00  0.00000000E+00  0.00000000E+00
  0.00000000E+00  0.00000000E+00  0.00000000E+00
  0.00000000E+00  0.00000000E+00  0.00000000E+00
  0.00000000E+00  0.00000000E+00  0.00000000E+00
  0.00000000E+00  0.00000000E+00  0.00000000E+00
  0.00000000E+00  0.00000000E+00  0.00000000E+00
  0.00000000E+00  0.00000000E+00  0.00000000E+00
  0.00000000E+00  0.00000000E+00  0.00000000E+00
  0.00000000E+00  0.00000000E+00  0.00000000E+00
  0.00000000E+00  0.00000000E+00  0.00000000E+00
  0.00000000E+00  0.00000000E+00  0.00000000E+00
  0.00000000E+00  0.00000000E+00  0.00000000E+00
  0.00000000E+00  0.00000000E+00  0.00000000E+00
  0.00000000E+00  0.00000000E+00  0.00000000E+00
  0.00000000E+00  0.00000000E+00  0.00000000E+00
  0.00000000E+00  0.00000000E+00  0.00000000E+00
  0.00000000E+00  0.00000000E+00  0.00000000E+00
  0.00000000E+00  0.00000000E+00  0.00000000E+00
  0.00000000E+00  0.00000000E+00  0.00000000E+00
  0.00000000E+00  0.00000000E+00  0.00000000E+00
  0.00000000E+00  0.00000000E+00  0.00000000E+00
  0.00000000E+00  0.00000000E+00  0.00000000E+00
  0.00000000E+00  0.00000000E+00  0.00000000E+00
