cif2pos.py
1.0
    12.30720000     0.00000000     0.00000000
     0.00000000     3.76690000     0.00000000
    -1.92832625     0.00000000     6.32895413
  Ti  O  Li
  8  16  1
Direct
     0.09993000     0.00000000     0.71040000
     0.19529000     0.00000000     0.28376000
     0.59993000     0.50000000     0.71040000
     0.69529000     0.50000000     0.28376000
     0.90007000     0.00000000     0.28960000
     0.80471000     0.00000000     0.71624000
     0.40007000     0.50000000     0.28960000
     0.30471000     0.50000000     0.71624000
     0.05835000     0.00000000     0.36998000
     0.13281000     0.00000000     0.00471000
     0.55835000     0.50000000     0.36998000
     0.63281000     0.50000000     0.00471000
     0.94165000     0.00000000     0.63002000
     0.86719000     0.00000000     0.99529000
     0.44165000     0.50000000     0.63002000
     0.36719000     0.50000000     0.99529000
     0.13807000     0.50000000     0.70660000
     0.23651000     0.50000000     0.34750000
     0.63807000     0.00000000     0.70660000
     0.73651000     0.00000000     0.34750000
     0.86193000     0.50000000     0.29340000
     0.76349000     0.50000000     0.65250000
     0.36193000     0.00000000     0.29340000
     0.26349000     0.00000000     0.65250000
     0.45119000     0.88036000     0.63550000
